AES/1_4_4/ssaes_r1-20_c4_rw1_e4_f0_k1-20_aes_canon_box_aes_mc_bidirectional/ExperimentMinisat_r11_k6cnf_2011-11-18-120055/Result
WARNING: for repeatability, setting FPU to use double precision
============================[ Problem Statistics ]=============================
|                                                                             |
|  Number of variables:          1720                                         |
|  Number of clauses:           10151                                         |
|  Parse time:                   0.00 s                                       |
|  Eliminated clauses:           0.02 Mb                                      |
|  Simplification time:          0.01 s                                       |
|                                                                             |
=============================[ Search Statistics ]==============================
| Conflicts  |          ORIGINAL         |          LEARNT          | Progress |
|            |    Vars  Clauses Literals |    Limit  Clauses Lit/Cl |          |
================================================================================
|        100 |    1397     9241    28681 |     3388      100     27 |  4.419 % |
|        250 |    1397     9241    28681 |     3727      250     34 |  4.419 % |
|        475 |    1397     9241    28681 |     4099      475     33 |  4.419 % |
|        812 |    1397     9241    28681 |     4509      812     32 |  4.419 % |
|       1318 |    1397     9241    28681 |     4960     1318     31 |  4.419 % |
|       2077 |    1397     9241    28681 |     5456     2077     29 |  4.419 % |
|       3216 |    1397     9241    28681 |     6002     3216     29 |  4.419 % |
|       4924 |    1397     9241    28681 |     6602     4924     29 |  4.419 % |
|       7486 |    1397     9241    28681 |     7263     4096     25 |  4.419 % |
|      11330 |    1397     9241    28681 |     7989     4240     22 |  4.419 % |
|      17096 |    1397     9241    28681 |     8788     5927     22 |  4.419 % |
===============================================================================
restarts              : 69
conflicts             : 19856          (9702 /sec)
decisions             : 23211          (0.00 % random) (11341 /sec)
propagations          : 12757211       (6233100 /sec)
conflict literals     : 537144         (58.88 % deleted)
Memory used           : 9.00 MB
CPU time              : 2.04669 s

SATISFIABLE
